NAME : pairopt
TYPE : ACVRP
DIMENSION : 6
EDGE_WEIGHT_TYPE : EXPLICIT
EDGE_WEIGHT_FORMAT : FULL_MATRIX
CAPACITY : 11250
VEHICLES : 2
EDGE_WEIGHT_SECTION
100000 -100000 -100000 100000 100000 100000 
100000 100000 1000000 382 50912 948 
100000 1000000 100000 51029 50672 231 
0 382 51029 100000 102000 1273 
0 50912 50672 102000 100000 757 
0 948 231 1273 757 100000 
DEMAND_SECTION
1 0
2 0
3 0
4 5000
5 5000
6 5000
DEPOT_SECTION
1
EOF